unsat
(:cnf-encoding-aux-vars 37
 :elim-unconstrained    1
 :max-memory            18.82
 :memory                18.52
 :nlsat-arith-var       7
 :nlsat-atoms           81
 :nlsat-bool-var        50
 :nlsat-clauses         196
 :nlsat-conflicts       44
 :nlsat-decisions       168
 :nlsat-propagations    401
 :num-allocs            134116
 :rlimit-count          22581
 :solve-eqs-elim-vars   44
 :solve-eqs-steps       127
 :time                  0.01
 :total-time            0.02)
